100
2523
30 48 49 17 25 91 6 11 18 32 65 27 52 83 4 59 63 59 50 64 74 25 52 12 63 30 98 3 90 35 67 53 61 49 93 15 85 34 13 9 50 80 49 14 85 8 44 31 89 12 64 84 67 27 75 19 78 9 70 5 63 90 25 19 75 59 94 75 57 37 72 46 55 18 21 98 77 13 69 89 41 90 46 83 64 65 80 26 40 20 46 68 37 66 85 10 65 90 70 29
45 32 2 38 44 29 35 5 55 33 49 39 91 54 23 85 51 15 22 85 4 26 99 21 39 15 2 98 49 44 22 73 56 30 18 53 73 58 53 54 11 76 9 37 92 13 5 11 85 14 98 67 68 47 20 65 63 91 20 78 9 25 3 18 44 50 85 74 16 96 39 45 42 47 1 83 64 27 8 80 5 98 75 23 23 44 56 57 16 11 26 78 29 64 61 20 49 16 14 75
